50	100	100	100
96	85	13
94	71	16
92	98	8
88	96	39
70	80	15
72	91	23
79	87	12
75	88	26
82	79	25
73	78	12
97	93	5
96	74	31
81	80	39
81	70	30
69	89	30
68	94	30
75	82	13
68	69	11
68	87	32
73	95	9
77	96	42
67	83	28
88	97	29
80	93	43
73	80	39
70	70	19
90	82	40
84	81	44
77	95	13
87	75	17
99	77	28
76	90	17
82	79	3
86	72	7
88	86	33
94	80	33
92	93	42
78	69	3
91	66	31
85	67	29
79	73	29
73	69	17
88	83	11
72	72	30
75	90	24
99	98	16
85	73	18
81	76	47
97	83	16
80	81	38
